NAME          
ROWS
 N  OBJ
 L  c1
COLUMNS
    MARKER    'MARKER'                 'INTORG'
    x[1]      c1        716
    x[1]      OBJ       -778
    x[2]      c1        945
    x[2]      OBJ       -907
    x[3]      c1        797
    x[3]      OBJ       -771
    x[4]      c1        679
    x[4]      OBJ       -642
    x[5]      c1        337
    x[5]      OBJ       -392
    x[6]      c1        955
    x[6]      OBJ       -984
    x[7]      c1        699
    x[7]      OBJ       -599
    x[8]      c1        20
    x[8]      OBJ       -120
    x[9]      c1        779
    x[9]      OBJ       -870
    x[10]     c1        939
    x[10]     OBJ       -928
    x[11]     c1        415
    x[11]     OBJ       -376
    x[12]     c1        507
    x[12]     OBJ       -565
    x[13]     c1        214
    x[13]     OBJ       -188
    x[14]     c1        907
    x[14]     OBJ       -944
    x[15]     c1        550
    x[15]     OBJ       -617
    x[16]     c1        798
    x[16]     OBJ       -809
    x[17]     c1        216
    x[17]     OBJ       -116
    x[18]     c1        924
    x[18]     OBJ       -904
    x[19]     c1        700
    x[19]     OBJ       -761
    x[20]     c1        718
    x[20]     OBJ       -672
    x[21]     c1        759
    x[21]     OBJ       -669
    x[22]     c1        325
    x[22]     OBJ       -269
    x[23]     c1        555
    x[23]     OBJ       -581
    x[24]     c1        942
    x[24]     OBJ       -876
    x[25]     c1        145
    x[25]     OBJ       -104
    x[26]     c1        893
    x[26]     OBJ       -963
    x[27]     c1        843
    x[27]     OBJ       -844
    x[28]     c1        576
    x[28]     OBJ       -655
    x[29]     c1        160
    x[29]     OBJ       -200
    x[30]     c1        798
    x[30]     OBJ       -889
RHS
    rhs       c1        9406
RANGES
BOUNDS
 LO bounds    x[1]      0
 PL bounds    x[1]
 LO bounds    x[2]      0
 PL bounds    x[2]
 LO bounds    x[3]      0
 PL bounds    x[3]
 LO bounds    x[4]      0
 PL bounds    x[4]
 LO bounds    x[5]      0
 PL bounds    x[5]
 LO bounds    x[6]      0
 PL bounds    x[6]
 LO bounds    x[7]      0
 PL bounds    x[7]
 LO bounds    x[8]      0
 PL bounds    x[8]
 LO bounds    x[9]      0
 PL bounds    x[9]
 LO bounds    x[10]     0
 PL bounds    x[10]
 LO bounds    x[11]     0
 PL bounds    x[11]
 LO bounds    x[12]     0
 PL bounds    x[12]
 LO bounds    x[13]     0
 PL bounds    x[13]
 LO bounds    x[14]     0
 PL bounds    x[14]
 LO bounds    x[15]     0
 PL bounds    x[15]
 LO bounds    x[16]     0
 PL bounds    x[16]
 LO bounds    x[17]     0
 PL bounds    x[17]
 LO bounds    x[18]     0
 PL bounds    x[18]
 LO bounds    x[19]     0
 PL bounds    x[19]
 LO bounds    x[20]     0
 PL bounds    x[20]
 LO bounds    x[21]     0
 PL bounds    x[21]
 LO bounds    x[22]     0
 PL bounds    x[22]
 LO bounds    x[23]     0
 PL bounds    x[23]
 LO bounds    x[24]     0
 PL bounds    x[24]
 LO bounds    x[25]     0
 PL bounds    x[25]
 LO bounds    x[26]     0
 PL bounds    x[26]
 LO bounds    x[27]     0
 PL bounds    x[27]
 LO bounds    x[28]     0
 PL bounds    x[28]
 LO bounds    x[29]     0
 PL bounds    x[29]
 LO bounds    x[30]     0
 PL bounds    x[30]
ENDATA
